0000000000000000
0000000000000000
0000000000000000
0000000000000000
0001100000110000
0000110001100000
0000011011000000
0000001110000000
0000011011000000
0000110001100000
0001100000110000
0000000000000000
0000000000000000
0000000000000000
0000000000000000
0000000000000000